(set-logic QF_SLIA)
(set-option :produce-models true)
(declare-fun x () String)
(assert (str.in_re x (re.++ (str.to_re "56") (re.+ (re.range "5" "7")) (str.to_re "70"))))
(assert (= (mod (mod (str.to_int x) 305) 74) 18))
(assert (< (str.len x) 100))
(check-sat)
(get-model)